p cnf 27 69
a 16 3 0
e 1 2 4 5 6 7 8 9 10 11 12 13 14 15 17 18 19 20 21 22 23 24 25 26 27 0
1 2 -3 0
-1 -2 -3 0
1 -2 3 0
-1 2 3 0
7 -5 0
7 -6 0
5 6 -7 0
4 7 -8 0
-4 -7 -8 0
4 -7 8 0
-4 7 8 0
-11 -10 0
-11 4 0
10 -4 11 0
-11 9 -12 0
11 -9 -12 0
-11 -9 12 0
11 9 12 0
-13 -9 0
-13 12 0
9 -12 13 0
14 8 0
14 13 0
-8 -13 -14 0
15 3 0
15 -14 0
-3 14 -15 0
-9 4 -16 0
9 -4 -16 0
-9 -4 16 0
9 4 16 0
18 17 0
18 11 0
-17 -11 -18 0
-19 17 0
-19 -2 0
-17 2 19 0
20 18 0
20 19 0
-18 -19 -20 0
-21 16 0
-21 20 0
-16 -20 21 0
22 15 0
22 21 0
-15 -21 -22 0
-23 -2 0
-23 -6 0
2 6 23 0
24 22 0
24 -23 0
-22 23 -24 0
-25 19 0
-25 12 0
-19 -12 25 0
25 -19 -26 0
-25 19 -26 0
25 19 26 0
-25 -19 26 0
-27 -24 0
-27 26 0
24 -26 27 0
22 24 -12 8 1 17 -7 0
27 -13 -8 -24 -4 21 -20 15 0
22 25 -26 15 2 -27 0
-15 -8 20 -3 -10 0
3 -2 -19 -17 0
-22 5 8 -3 -18 -15 -27 0
27 0
